benchmarks_CP/INST_49x49/40/inst49x49_40_26.dzn
S=7;
start=[|
-1,	-1,	35,	-1,	-1,	-1,	-1,	-1,	-1,	-1,	47,	-1,	-1,	-1,	-1,	24,	-1,	-1,	-1,	-1,	48,	46,	-1,	-1,	-1,	-1,	21,	28,	36,	-1,	-1,	-1,	-1,	-1,	29,	2,	-1,	-1,	-1,	4,	-1,	26,	-1,	-1,	16,	-1,	37,	-1,	23|
-1,	-1,	-1,	-1,	-1,	44,	-1,	-1,	-1,	20,	-1,	-1,	-1,	26,	11,	-1,	-1,	-1,	-1,	22,	21,	-1,	-1,	45,	-1,	-1,	-1,	-1,	-1,	39,	35,	7,	9,	-1,	8,	-1,	-1,	16,	29,	-1,	34,	-1,	-1,	-1,	-1,	-1,	41,	-1,	-1|
49,	-1,	36,	-1,	-1,	-1,	-1,	-1,	-1,	39,	15,	44,	-1,	-1,	-1,	-1,	-1,	-1,	-1,	-1,	-1,	-1,	-1,	-1,	-1,	33,	20,	43,	-1,	-1,	-1,	27,	-1,	-1,	-1,	-1,	13,	21,	7,	-1,	17,	-1,	-1,	-1,	-1,	34,	26,	-1,	-1|
4,	-1,	-1,	14,	-1,	13,	-1,	-1,	-1,	46,	-1,	-1,	-1,	-1,	16,	-1,	8,	-1,	-1,	-1,	7,	-1,	36,	-1,	-1,	-1,	48,	-1,	-1,	-1,	-1,	-1,	-1,	34,	-1,	6,	-1,	12,	27,	32,	-1,	20,	-1,	33,	-1,	-1,	-1,	-1,	1|
-1,	-1,	-1,	-1,	-1,	-1,	21,	-1,	-1,	-1,	-1,	14,	-1,	-1,	-1,	41,	-1,	10,	27,	4,	-1,	-1,	-1,	37,	-1,	-1,	-1,	49,	42,	-1,	20,	48,	-1,	-1,	-1,	-1,	-1,	-1,	5,	-1,	-1,	3,	-1,	-1,	6,	-1,	-1,	-1,	-1|
-1,	-1,	-1,	37,	-1,	-1,	-1,	-1,	1,	33,	-1,	-1,	-1,	29,	-1,	13,	-1,	-1,	-1,	39,	15,	-1,	-1,	17,	-1,	25,	24,	-1,	16,	-1,	-1,	-1,	-1,	4,	-1,	-1,	41,	45,	-1,	-1,	43,	-1,	30,	42,	40,	-1,	47,	5,	11|
-1,	32,	3,	-1,	-1,	-1,	-1,	-1,	-1,	-1,	34,	21,	-1,	-1,	-1,	-1,	35,	-1,	-1,	-1,	-1,	22,	14,	6,	-1,	29,	5,	10,	-1,	-1,	-1,	40,	-1,	26,	13,	-1,	-1,	-1,	28,	-1,	-1,	-1,	-1,	4,	-1,	7,	45,	27,	-1|
-1,	-1,	15,	-1,	41,	-1,	-1,	10,	2,	-1,	1,	-1,	11,	48,	-1,	-1,	-1,	42,	-1,	-1,	46,	13,	4,	-1,	-1,	34,	39,	-1,	44,	21,	-1,	-1,	-1,	38,	-1,	-1,	36,	26,	-1,	7,	-1,	40,	-1,	-1,	-1,	-1,	-1,	-1,	-1|
-1,	20,	-1,	-1,	-1,	-1,	-1,	-1,	40,	-1,	-1,	-1,	-1,	-1,	-1,	12,	1,	-1,	-1,	14,	-1,	23,	-1,	29,	28,	-1,	42,	19,	24,	-1,	32,	31,	46,	47,	-1,	-1,	-1,	9,	-1,	3,	21,	-1,	-1,	-1,	-1,	18,	-1,	-1,	25|
-1,	3,	-1,	22,	-1,	-1,	-1,	-1,	-1,	-1,	-1,	12,	44,	32,	-1,	26,	28,	-1,	-1,	-1,	38,	6,	-1,	36,	-1,	-1,	1,	-1,	33,	18,	-1,	15,	13,	5,	-1,	-1,	-1,	14,	34,	-1,	-1,	46,	-1,	47,	8,	21,	-1,	23,	-1|
-1,	38,	-1,	49,	-1,	-1,	-1,	-1,	-1,	26,	36,	-1,	23,	37,	-1,	21,	44,	-1,	-1,	-1,	40,	45,	-1,	-1,	-1,	12,	-1,	33,	6,	1,	-1,	-1,	-1,	27,	-1,	18,	25,	15,	2,	-1,	4,	47,	39,	-1,	-1,	-1,	13,	-1,	31|
28,	-1,	-1,	-1,	-1,	1,	33,	5,	14,	8,	16,	47,	39,	-1,	-1,	36,	-1,	22,	19,	-1,	32,	17,	-1,	-1,	-1,	-1,	44,	-1,	-1,	29,	-1,	26,	7,	-1,	-1,	-1,	-1,	-1,	13,	-1,	-1,	-1,	-1,	-1,	-1,	40,	3,	24,	-1|
25,	-1,	-1,	4,	-1,	34,	-1,	29,	18,	-1,	-1,	-1,	41,	-1,	-1,	-1,	-1,	-1,	-1,	-1,	-1,	5,	-1,	-1,	10,	21,	26,	-1,	48,	-1,	-1,	-1,	37,	-1,	-1,	-1,	-1,	28,	-1,	-1,	-1,	-1,	-1,	-1,	1,	-1,	-1,	-1,	36|
-1,	-1,	-1,	10,	9,	18,	-1,	21,	-1,	-1,	25,	-1,	-1,	-1,	39,	-1,	-1,	-1,	-1,	6,	-1,	-1,	-1,	-1,	-1,	-1,	-1,	7,	14,	-1,	-1,	-1,	-1,	-1,	-1,	-1,	37,	8,	-1,	-1,	-1,	-1,	-1,	-1,	15,	46,	27,	34,	30|
1,	-1,	46,	-1,	-1,	-1,	-1,	24,	-1,	-1,	10,	-1,	-1,	-1,	-1,	-1,	5,	33,	-1,	-1,	-1,	36,	44,	-1,	49,	-1,	-1,	-1,	-1,	26,	-1,	11,	6,	-1,	-1,	29,	-1,	-1,	-1,	21,	-1,	-1,	-1,	-1,	13,	12,	-1,	-1,	-1|
-1,	6,	-1,	-1,	-1,	-1,	-1,	-1,	49,	-1,	14,	41,	-1,	-1,	45,	-1,	-1,	-1,	23,	-1,	-1,	-1,	48,	-1,	-1,	43,	-1,	-1,	-1,	-1,	24,	9,	28,	-1,	-1,	37,	42,	20,	40,	-1,	-1,	36,	1,	-1,	26,	-1,	-1,	-1,	-1|
18,	-1,	22,	43,	-1,	15,	-1,	-1,	-1,	13,	-1,	-1,	20,	2,	-1,	-1,	19,	7,	-1,	-1,	-1,	-1,	9,	-1,	-1,	-1,	-1,	-1,	-1,	30,	-1,	5,	-1,	17,	-1,	-1,	23,	-1,	35,	-1,	-1,	-1,	40,	25,	-1,	16,	-1,	-1,	-1|
-1,	-1,	-1,	-1,	42,	24,	10,	-1,	25,	-1,	30,	-1,	47,	1,	-1,	44,	2,	-1,	-1,	29,	35,	21,	22,	-1,	8,	41,	-1,	-1,	-1,	-1,	-1,	-1,	-1,	37,	-1,	-1,	-1,	-1,	3,	28,	-1,	-1,	-1,	23,	-1,	5,	-1,	-1,	7|
30,	-1,	9,	-1,	28,	-1,	-1,	44,	-1,	31,	27,	39,	-1,	38,	13,	11,	-1,	-1,	4,	-1,	-1,	-1,	-1,	-1,	5,	-1,	-1,	-1,	-1,	-1,	1,	-1,	-1,	42,	46,	33,	-1,	7,	-1,	16,	-1,	10,	35,	-1,	34,	32,	-1,	6,	8|
-1,	-1,	49,	-1,	-1,	-1,	-1,	-1,	32,	28,	8,	-1,	12,	15,	-1,	-1,	39,	-1,	-1,	24,	20,	-1,	-1,	-1,	-1,	-1,	-1,	-1,	21,	33,	-1,	23,	-1,	16,	-1,	-1,	-1,	-1,	47,	13,	-1,	-1,	-1,	36,	3,	-1,	-1,	-1,	22|
13,	-1,	-1,	39,	-1,	-1,	-1,	-1,	-1,	21,	-1,	-1,	18,	-1,	-1,	-1,	-1,	-1,	-1,	-1,	-1,	-1,	-1,	16,	24,	23,	-1,	-1,	7,	38,	29,	-1,	-1,	-1,	31,	34,	-1,	-1,	45,	-1,	1,	-1,	-1,	-1,	-1,	-1,	-1,	-1,	48|
-1,	27,	47,	-1,	-1,	30,	18,	8,	-1,	1,	-1,	-1,	-1,	-1,	-1,	-1,	-1,	24,	-1,	-1,	-1,	-1,	32,	-1,	46,	-1,	-1,	-1,	43,	42,	-1,	-1,	14,	-1,	-1,	-1,	-1,	41,	-1,	2,	-1,	-1,	16,	-1,	7,	-1,	31,	-1,	10|
-1,	37,	-1,	13,	5,	-1,	36,	-1,	-1,	-1,	-1,	3,	49,	-1,	-1,	-1,	14,	15,	-1,	48,	-1,	7,	-1,	-1,	12,	-1,	17,	29,	-1,	-1,	-1,	-1,	27,	-1,	-1,	-1,	-1,	-1,	24,	-1,	-1,	-1,	43,	40,	-1,	42,	-1,	-1,	34|
2,	-1,	17,	-1,	-1,	32,	-1,	-1,	-1,	27,	48,	46,	9,	-1,	-1,	18,	-1,	40,	-1,	21,	37,	-1,	13,	-1,	-1,	15,	-1,	-1,	-1,	5,	-1,	-1,	30,	44,	-1,	-1,	7,	-1,	26,	10,	-1,	1,	6,	29,	-1,	33,	25,	-1,	-1|
-1,	45,	39,	1,	-1,	43,	-1,	-1,	37,	2,	-1,	-1,	-1,	-1,	10,	-1,	4,	11,	-1,	12,	41,	-1,	40,	-1,	-1,	-1,	-1,	-1,	-1,	-1,	-1,	-1,	-1,	21,	18,	-1,	34,	-1,	-1,	-1,	-1,	28,	-1,	-1,	-1,	-1,	30,	35,	-1|
-1,	-1,	41,	-1,	-1,	-1,	16,	47,	-1,	-1,	-1,	30,	14,	-1,	-1,	-1,	45,	32,	33,	-1,	5,	-1,	-1,	-1,	48,	3,	-1,	-1,	28,	25,	13,	4,	2,	-1,	-1,	-1,	-1,	37,	-1,	22,	-1,	-1,	-1,	1,	49,	-1,	-1,	-1,	26|
-1,	-1,	4,	44,	-1,	-1,	40,	41,	15,	-1,	-1,	-1,	-1,	-1,	-1,	-1,	-1,	19,	-1,	-1,	39,	-1,	-1,	-1,	14,	-1,	-1,	-1,	37,	-1,	-1,	24,	26,	-1,	6,	-1,	-1,	-1,	-1,	-1,	-1,	49,	45,	48,	-1,	22,	32,	21,	47|
-1,	-1,	-1,	-1,	-1,	33,	12,	-1,	26,	16,	-1,	40,	-1,	-1,	44,	-1,	3,	-1,	46,	-1,	8,	42,	27,	25,	39,	-1,	47,	22,	-1,	10,	17,	32,	34,	-1,	35,	-1,	-1,	-1,	48,	-1,	-1,	-1,	36,	19,	-1,	-1,	-1,	11,	-1|
-1,	-1,	37,	-1,	-1,	42,	-1,	-1,	-1,	32,	3,	-1,	-1,	44,	15,	-1,	17,	38,	14,	-1,	-1,	-1,	-1,	-1,	-1,	-1,	-1,	-1,	-1,	-1,	-1,	-1,	-1,	-1,	-1,	10,	9,	1,	41,	8,	47,	-1,	23,	-1,	-1,	29,	2,	39,	-1|
3,	13,	40,	-1,	-1,	19,	29,	7,	-1,	-1,	12,	-1,	15,	-1,	-1,	28,	18,	5,	26,	-1,	-1,	-1,	30,	-1,	-1,	6,	43,	41,	-1,	-1,	42,	49,	-1,	-1,	-1,	-1,	-1,	24,	21,	-1,	-1,	48,	-1,	22,	-1,	-1,	-1,	-1,	-1|
-1,	26,	-1,	-1,	-1,	-1,	-1,	-1,	30,	-1,	35,	24,	-1,	-1,	-1,	20,	-1,	-1,	-1,	-1,	44,	3,	-1,	14,	-1,	19,	-1,	-1,	-1,	-1,	36,	-1,	-1,	-1,	11,	-1,	-1,	34,	-1,	42,	22,	-1,	-1,	-1,	-1,	27,	48,	-1,	40|
14,	-1,	18,	-1,	-1,	-1,	-1,	1,	29,	42,	-1,	13,	-1,	21,	12,	-1,	-1,	37,	-1,	-1,	-1,	-1,	-1,	40,	47,	22,	-1,	11,	-1,	35,	-1,	-1,	3,	-1,	24,	-1,	15,	19,	-1,	-1,	-1,	5,	34,	43,	44,	30,	38,	25,	-1|
7,	-1,	-1,	-1,	-1,	-1,	-1,	-1,	-1,	-1,	-1,	-1,	6,	-1,	22,	16,	-1,	-1,	31,	-1,	42,	-1,	-1,	-1,	-1,	-1,	-1,	13,	-1,	47,	27,	37,	20,	45,	-1,	-1,	-1,	25,	43,	-1,	2,	35,	-1,	-1,	-1,	10,	-1,	-1,	-1|
34,	24,	-1,	-1,	-1,	22,	32,	-1,	-1,	-1,	19,	25,	-1,	-1,	30,	-1,	-1,	-1,	-1,	3,	-1,	39,	-1,	-1,	38,	-1,	-1,	16,	9,	-1,	44,	6,	15,	7,	-1,	-1,	-1,	-1,	-1,	45,	33,	29,	-1,	-1,	31,	4,	-1,	-1,	-1|
-1,	44,	16,	25,	49,	2,	-1,	-1,	-1,	34,	31,	-1,	37,	-1,	8,	-1,	48,	-1,	7,	11,	9,	1,	29,	-1,	-1,	-1,	32,	-1,	-1,	-1,	-1,	-1,	-1,	-1,	-1,	-1,	-1,	13,	-1,	30,	28,	-1,	-1,	-1,	-1,	-1,	-1,	47,	-1|
19,	4,	33,	35,	37,	5,	-1,	-1,	45,	-1,	-1,	-1,	-1,	9,	-1,	14,	38,	36,	-1,	40,	-1,	47,	-1,	-1,	-1,	-1,	34,	-1,	-1,	8,	-1,	13,	-1,	-1,	26,	-1,	-1,	30,	-1,	-1,	-1,	11,	-1,	-1,	46,	-1,	-1,	2,	18|
39,	-1,	-1,	23,	-1,	-1,	-1,	14,	-1,	-1,	6,	-1,	30,	-1,	32,	27,	13,	-1,	-1,	37,	33,	9,	10,	-1,	21,	-1,	46,	-1,	-1,	-1,	-1,	-1,	40,	-1,	5,	7,	-1,	-1,	-1,	-1,	-1,	-1,	22,	-1,	25,	-1,	42,	-1,	-1|
44,	22,	-1,	-1,	-1,	46,	-1,	-1,	8,	-1,	7,	-1,	-1,	-1,	-1,	-1,	-1,	-1,	1,	-1,	-1,	27,	-1,	-1,	-1,	-1,	41,	45,	32,	-1,	-1,	-1,	-1,	-1,	34,	15,	-1,	-1,	6,	-1,	-1,	39,	-1,	-1,	-1,	-1,	20,	40,	12|
-1,	34,	-1,	-1,	-1,	-1,	24,	13,	-1,	18,	26,	2,	-1,	-1,	-1,	-1,	30,	16,	-1,	41,	11,	-1,	-1,	5,	37,	14,	15,	-1,	-1,	43,	-1,	-1,	35,	-1,	23,	-1,	-1,	4,	-1,	-1,	-1,	25,	31,	-1,	38,	1,	-1,	-1,	-1|
12,	-1,	1,	-1,	-1,	-1,	-1,	11,	-1,	-1,	-1,	-1,	-1,	10,	-1,	-1,	-1,	-1,	6,	-1,	49,	26,	33,	31,	-1,	-1,	-1,	-1,	-1,	28,	14,	-1,	-1,	41,	-1,	21,	2,	-1,	46,	-1,	23,	13,	24,	-1,	-1,	-1,	-1,	-1,	-1|
48,	-1,	27,	29,	3,	-1,	47,	23,	-1,	19,	-1,	16,	-1,	20,	46,	-1,	7,	-1,	12,	-1,	18,	24,	-1,	8,	-1,	-1,	35,	-1,	25,	11,	6,	44,	36,	30,	2,	-1,	-1,	-1,	14,	17,	40,	-1,	13,	-1,	41,	-1,	-1,	-1,	33|
42,	-1,	6,	-1,	43,	-1,	-1,	-1,	-1,	-1,	-1,	-1,	-1,	-1,	-1,	-1,	-1,	-1,	44,	-1,	2,	40,	-1,	-1,	29,	13,	-1,	-1,	-1,	27,	-1,	-1,	17,	22,	-1,	26,	16,	18,	32,	-1,	-1,	37,	5,	14,	47,	-1,	-1,	-1,	-1|
-1,	-1,	32,	19,	-1,	16,	-1,	-1,	-1,	15,	13,	5,	33,	8,	21,	3,	20,	18,	-1,	27,	29,	37,	-1,	46,	-1,	11,	23,	-1,	38,	-1,	-1,	34,	-1,	-1,	49,	-1,	12,	-1,	25,	31,	-1,	-1,	10,	-1,	35,	6,	-1,	1,	-1|
43,	10,	38,	-1,	-1,	-1,	-1,	42,	-1,	25,	41,	-1,	48,	47,	-1,	-1,	-1,	-1,	17,	-1,	-1,	-1,	-1,	-1,	-1,	-1,	-1,	-1,	-1,	6,	-1,	1,	29,	-1,	37,	-1,	-1,	40,	-1,	26,	-1,	9,	-1,	11,	-1,	-1,	-1,	19,	-1|
22,	-1,	-1,	27,	-1,	12,	9,	-1,	-1,	-1,	-1,	-1,	-1,	40,	-1,	25,	-1,	-1,	-1,	47,	1,	-1,	-1,	43,	17,	26,	-1,	-1,	20,	-1,	39,	28,	33,	8,	-1,	-1,	-1,	-1,	36,	49,	-1,	18,	-1,	-1,	-1,	-1,	23,	-1,	-1|
-1,	-1,	-1,	-1,	35,	21,	-1,	45,	-1,	-1,	4,	-1,	-1,	-1,	2,	5,	36,	48,	-1,	26,	-1,	-1,	-1,	38,	-1,	-1,	29,	-1,	13,	46,	22,	-1,	-1,	-1,	-1,	19,	1,	17,	-1,	43,	6,	-1,	-1,	9,	-1,	-1,	-1,	-1,	-1|
-1,	-1,	-1,	-1,	-1,	40,	26,	-1,	-1,	-1,	-1,	1,	29,	-1,	-1,	-1,	31,	39,	-1,	43,	-1,	33,	-1,	34,	-1,	36,	9,	6,	-1,	-1,	-1,	-1,	44,	12,	-1,	-1,	-1,	-1,	8,	-1,	3,	-1,	-1,	-1,	-1,	14,	-1,	-1,	-1|
5,	-1,	29,	-1,	7,	-1,	-1,	-1,	-1,	-1,	-1,	-1,	21,	-1,	-1,	49,	16,	12,	-1,	-1,	28,	-1,	-1,	-1,	-1,	-1,	25,	-1,	40,	41,	2,	17,	-1,	-1,	-1,	-1,	20,	-1,	-1,	-1,	14,	-1,	-1,	3,	27,	-1,	-1,	-1,	-1|
-1,	1,	-1,	-1,	-1,	17,	-1,	-1,	11,	12,	20,	43,	26,	-1,	-1,	6,	42,	23,	-1,	-1,	-1,	16,	24,	-1,	-1,	-1,	-1,	48,	19,	-1,	-1,	18,	-1,	-1,	-1,	47,	27,	-1,	-1,	-1,	-1,	41,	29,	34,	-1,	36,	-1,	30,	-1|];
