sudoku-ls/benchmarks_LEQ/INST_49x49/40/inst49x49_40_26.txt
7
1
-1	-1	35	-1	-1	-1	-1	-1	-1	-1	47	9	-1	-1	40	-1	-1	1	-1	30	-1	46	39	-1	-1	-1	-1	28	36	-1	-1	-1	-1	-1	-1	2	-1	-1	19	-1	-1	26	-1	44	16	-1	37	-1	-1
6	31	-1	-1	-1	-1	1	-1	10	-1	-1	37	36	-1	-1	-1	-1	14	-1	22	-1	12	-1	45	4	-1	13	-1	5	-1	35	7	-1	3	-1	-1	30	-1	-1	-1	-1	33	-1	-1	-1	-1	-1	48	-1
-1	28	-1	16	-1	10	23	-1	-1	-1	-1	44	-1	30	5	-1	-1	-1	-1	18	-1	-1	-1	-1	-1	-1	20	-1	-1	-1	-1	-1	-1	46	-1	-1	-1	21	7	40	17	-1	2	-1	24	-1	26	-1	14
4	-1	45	-1	-1	13	2	22	-1	46	-1	23	24	-1	-1	43	-1	-1	28	19	-1	-1	-1	-1	-1	-1	48	-1	17	-1	-1	-1	-1	-1	-1	6	-1	-1	-1	-1	-1	20	-1	-1	-1	35	-1	3	1
-1	-1	-1	-1	15	-1	-1	40	17	45	-1	14	-1	-1	31	-1	-1	-1	-1	-1	12	30	-1	37	1	-1	2	49	-1	-1	20	-1	-1	24	33	-1	-1	-1	5	25	11	-1	46	8	6	-1	39	36	-1
-1	46	-1	-1	12	-1	-1	-1	1	-1	32	6	-1	-1	36	-1	-1	3	-1	39	-1	34	-1	17	-1	25	24	23	-1	2	28	14	-1	-1	-1	48	-1	-1	-1	35	43	-1	30	-1	40	-1	47	-1	11
-1	-1	-1	33	-1	48	-1	-1	16	49	-1	21	-1	-1	-1	37	35	-1	-1	44	-1	22	-1	6	-1	-1	-1	10	-1	15	30	-1	-1	-1	-1	1	31	36	-1	-1	18	-1	20	4	-1	7	-1	27	9
-1	-1	-1	-1	-1	14	-1	-1	-1	3	-1	-1	-1	48	-1	-1	-1	42	37	16	-1	-1	4	30	27	-1	39	32	44	-1	25	-1	49	38	-1	-1	36	-1	-1	7	-1	-1	-1	-1	22	43	5	28	6
36	-1	-1	-1	44	-1	-1	15	-1	-1	-1	27	35	-1	-1	12	-1	-1	10	-1	-1	-1	-1	-1	28	37	-1	-1	24	34	-1	-1	-1	-1	-1	-1	5	-1	-1	3	21	17	-1	38	-1	18	16	33	-1
-1	-1	43	22	-1	-1	11	-1	9	-1	-1	-1	-1	-1	41	-1	-1	27	-1	-1	-1	-1	-1	-1	-1	-1	1	2	-1	18	16	15	-1	-1	39	24	-1	14	34	48	20	46	7	-1	8	-1	-1	-1	29
-1	-1	5	-1	-1	29	42	-1	-1	-1	-1	-1	23	37	43	-1	-1	34	-1	9	40	-1	-1	-1	20	12	-1	-1	-1	-1	3	-1	-1	-1	28	18	25	15	-1	11	4	47	-1	-1	10	48	-1	-1	-1
28	-1	-1	-1	-1	-1	-1	5	-1	8	16	-1	-1	-1	-1	36	15	-1	-1	25	-1	17	-1	-1	-1	-1	-1	-1	4	-1	-1	26	-1	-1	-1	-1	38	43	-1	-1	49	-1	11	-1	-1	40	-1	-1	-1
25	39	13	-1	-1	34	-1	29	-1	6	-1	33	-1	-1	20	-1	-1	-1	-1	2	-1	-1	15	47	-1	21	-1	40	48	-1	-1	-1	37	-1	43	-1	32	-1	22	19	-1	-1	-1	-1	1	-1	12	-1	-1
32	-1	26	-1	-1	-1	-1	-1	-1	-1	25	49	-1	28	-1	-1	-1	-1	-1	-1	-1	-1	-1	-1	-1	-1	-1	7	14	17	11	-1	-1	-1	-1	41	37	8	23	-1	-1	45	44	-1	-1	-1	27	-1	30
-1	-1	-1	-1	-1	-1	37	-1	23	-1	-1	-1	-1	16	-1	-1	-1	33	-1	28	3	-1	44	-1	-1	47	-1	34	-1	26	-1	-1	-1	-1	-1	-1	-1	-1	-1	-1	-1	-1	41	31	-1	-1	43	-1	-1
47	-1	7	-1	33	-1	3	35	-1	-1	-1	-1	22	-1	45	-1	12	17	23	-1	-1	2	-1	-1	-1	-1	-1	-1	-1	44	24	-1	28	13	27	-1	42	-1	40	-1	-1	36	1	21	-1	-1	11	-1	-1
-1	-1	22	-1	27	-1	-1	36	6	-1	-1	-1	20	-1	-1	-1	-1	-1	-1	-1	-1	-1	-1	12	-1	46	-1	26	3	30	-1	5	-1	-1	-1	-1	-1	-1	35	-1	-1	-1	40	-1	-1	-1	-1	45	-1
17	-1	12	36	-1	-1	-1	-1	25	-1	-1	48	-1	-1	-1	-1	-1	46	-1	29	35	21	-1	-1	-1	41	-1	27	-1	20	-1	43	-1	37	45	-1	-1	-1	3	-1	-1	-1	-1	-1	-1	-1	-1	14	-1
30	21	9	-1	28	-1	-1	-1	43	31	-1	-1	-1	38	13	11	-1	-1	-1	15	-1	29	-1	-1	5	-1	19	-1	-1	48	-1	-1	12	-1	-1	33	26	-1	-1	-1	25	-1	35	24	-1	-1	-1	-1	8
45	5	-1	26	48	-1	19	-1	32	-1	-1	-1	12	15	-1	-1	39	31	18	-1	20	4	-1	-1	-1	-1	-1	-1	-1	-1	-1	-1	-1	-1	-1	27	43	46	-1	13	38	-1	37	36	-1	9	17	-1	-1
-1	25	44	-1	-1	35	-1	-1	19	-1	17	-1	-1	33	-1	-1	-1	43	41	-1	26	28	42	16	-1	-1	40	14	7	-1	29	-1	-1	49	31	-1	-1	5	-1	9	-1	12	-1	-1	30	-1	-1	15	48
-1	-1	-1	48	29	-1	18	-1	44	-1	33	-1	5	-1	35	-1	-1	-1	-1	-1	-1	49	32	-1	46	-1	-1	37	-1	-1	12	-1	-1	-1	-1	-1	-1	41	-1	2	-1	15	-1	-1	-1	-1	31	13	10
35	37	-1	-1	-1	-1	-1	-1	21	10	-1	3	49	-1	26	22	-1	-1	-1	-1	47	7	2	-1	-1	-1	17	-1	-1	-1	46	-1	-1	-1	-1	30	8	11	24	18	32	-1	43	-1	-1	42	-1	9	-1
-1	-1	17	-1	38	-1	-1	-1	-1	-1	48	46	-1	-1	-1	-1	-1	-1	-1	21	37	41	13	-1	-1	15	-1	-1	-1	-1	-1	-1	-1	-1	-1	-1	7	-1	26	-1	-1	-1	-1	29	-1	33	-1	-1	-1
-1	-1	39	1	22	-1	6	-1	37	-1	-1	-1	32	-1	10	-1	4	-1	-1	-1	-1	38	-1	-1	26	-1	8	-1	47	9	49	-1	48	21	18	25	34	31	-1	-1	-1	-1	-1	-1	-1	-1	-1	-1	-1
10	23	-1	42	-1	7	16	47	-1	-1	11	30	14	-1	38	-1	-1	32	33	31	-1	19	34	20	-1	-1	6	-1	-1	-1	-1	4	-1	29	-1	-1	-1	-1	39	22	-1	-1	17	-1	-1	-1	-1	46	-1
-1	-1	-1	-1	11	-1	40	-1	-1	29	28	38	34	-1	-1	-1	25	-1	-1	13	39	-1	35	-1	14	9	-1	-1	-1	36	7	24	-1	31	-1	46	33	-1	17	12	-1	49	-1	-1	18	22	-1	21	-1
15	-1	-1	-1	-1	33	-1	-1	-1	-1	-1	-1	-1	18	-1	30	3	28	46	7	-1	-1	27	-1	-1	-1	47	22	23	10	-1	-1	-1	20	-1	43	-1	6	48	-1	-1	38	-1	-1	-1	-1	-1	-1	-1
-1	-1	-1	-1	6	-1	-1	-1	-1	32	-1	-1	40	44	-1	19	17	38	14	46	-1	25	-1	26	-1	-1	-1	-1	-1	-1	33	-1	-1	43	22	10	-1	-1	41	-1	47	7	23	-1	-1	-1	-1	39	49
-1	-1	40	47	10	19	-1	7	-1	-1	-1	8	-1	36	1	28	18	-1	-1	-1	25	-1	30	27	2	-1	-1	-1	34	-1	42	-1	-1	-1	-1	-1	-1	-1	-1	39	46	48	-1	22	-1	-1	-1	16	37
-1	26	23	21	17	38	5	-1	30	47	-1	-1	-1	4	-1	-1	-1	-1	-1	-1	44	-1	-1	-1	-1	-1	31	-1	-1	-1	-1	25	1	2	-1	12	-1	-1	37	-1	22	32	-1	-1	-1	-1	-1	-1	-1
-1	-1	-1	45	-1	9	-1	-1	-1	42	46	-1	-1	21	-1	-1	32	37	-1	33	-1	-1	7	40	-1	-1	49	11	8	35	23	41	3	-1	24	16	-1	19	31	-1	-1	-1	34	-1	44	-1	38	-1	-1
-1	-1	28	-1	-1	39	41	-1	-1	11	9	-1	-1	-1	-1	-1	24	-1	31	34	-1	-1	-1	-1	-1	-1	-1	-1	29	-1	27	-1	-1	45	30	-1	40	-1	43	-1	-1	-1	-1	-1	-1	10	-1	-1	-1
34	-1	-1	-1	-1	22	32	-1	-1	14	19	25	2	43	-1	40	-1	-1	47	-1	-1	39	-1	-1	-1	5	37	16	9	12	-1	-1	15	-1	-1	23	49	-1	-1	-1	-1	-1	42	-1	-1	4	1	-1	-1
-1	-1	16	-1	-1	-1	43	-1	-1	34	-1	-1	-1	-1	-1	23	-1	-1	-1	11	9	1	-1	18	-1	-1	-1	21	26	-1	-1	-1	-1	10	-1	17	-1	-1	20	30	28	-1	-1	-1	-1	41	-1	-1	-1
-1	4	-1	35	-1	-1	-1	-1	-1	-1	-1	31	-1	-1	24	14	38	-1	-1	-1	-1	-1	17	-1	-1	7	34	39	-1	-1	21	13	-1	1	26	22	48	-1	-1	-1	-1	11	-1	-1	-1	3	44	2	18
39	-1	-1	-1	26	41	38	14	47	44	-1	34	30	17	-1	27	13	-1	29	37	33	9	-1	-1	-1	28	46	-1	31	4	-1	20	-1	15	-1	-1	-1	-1	1	36	-1	-1	22	-1	-1	-1	42	49	-1
-1	22	-1	17	2	46	13	-1	8	-1	-1	-1	43	-1	28	-1	-1	-1	-1	-1	-1	-1	38	-1	-1	-1	41	45	-1	3	37	-1	24	-1	-1	15	29	-1	-1	-1	9	39	-1	-1	11	-1	20	40	12
-1	34	-1	32	40	45	24	-1	-1	18	-1	2	-1	-1	-1	-1	30	16	48	41	-1	-1	-1	5	37	-1	15	36	49	-1	-1	42	35	-1	23	-1	44	4	12	-1	-1	-1	-1	-1	-1	-1	29	-1	17
12	-1	-1	-1	-1	-1	-1	-1	-1	-1	40	32	-1	-1	17	4	-1	-1	6	-1	-1	26	33	-1	44	-1	3	-1	45	28	14	29	-1	-1	-1	21	2	-1	-1	-1	23	13	-1	-1	48	-1	-1	-1	19
48	-1	27	-1	-1	49	-1	-1	-1	-1	21	-1	38	20	-1	39	-1	-1	12	-1	18	24	-1	8	-1	-1	-1	-1	-1	-1	-1	44	-1	-1	-1	5	-1	42	-1	17	40	-1	-1	37	41	-1	34	-1	-1
-1	-1	-1	-1	43	-1	-1	33	-1	48	24	-1	-1	3	34	35	-1	-1	-1	-1	-1	40	-1	-1	-1	-1	-1	-1	46	-1	19	-1	17	22	7	-1	16	-1	32	-1	-1	37	5	-1	-1	-1	-1	-1	-1
24	2	-1	19	45	16	44	9	28	-1	13	-1	33	8	-1	-1	-1	-1	-1	27	-1	-1	-1	46	-1	-1	-1	-1	38	-1	26	34	-1	36	-1	4	-1	-1	-1	31	-1	-1	-1	-1	-1	-1	40	-1	-1
43	10	-1	28	-1	4	-1	42	31	-1	41	-1	-1	-1	-1	-1	-1	-1	-1	32	-1	14	12	-1	-1	2	-1	3	-1	-1	-1	1	-1	-1	-1	-1	-1	40	16	26	-1	-1	8	-1	21	20	-1	-1	13
-1	14	30	-1	13	-1	-1	6	34	38	44	7	-1	-1	19	25	37	-1	-1	-1	1	15	21	43	17	-1	-1	4	-1	-1	-1	28	-1	-1	-1	-1	-1	-1	36	49	42	-1	48	2	-1	45	23	-1	-1
-1	-1	-1	-1	-1	-1	31	-1	27	-1	-1	10	-1	-1	-1	-1	-1	-1	-1	-1	-1	-1	20	38	40	39	29	-1	-1	-1	-1	-1	11	-1	-1	-1	-1	-1	-1	-1	-1	-1	49	9	12	-1	7	-1	-1
-1	-1	-1	-1	23	-1	26	-1	-1	17	49	1	-1	19	-1	-1	-1	-1	-1	-1	-1	-1	5	-1	-1	-1	-1	-1	27	-1	-1	35	44	-1	-1	13	-1	32	-1	37	3	-1	25	-1	42	-1	-1	-1	-1
-1	-1	-1	6	-1	-1	-1	-1	-1	36	-1	35	-1	39	-1	-1	16	-1	-1	38	-1	-1	-1	19	-1	30	25	-1	-1	-1	-1	17	-1	-1	-1	-1	20	33	44	-1	-1	-1	4	-1	27	-1	15	-1	-1
-1	-1	-1	3	-1	-1	15	37	-1	-1	-1	-1	26	-1	7	6	-1	23	-1	-1	45	-1	24	-1	-1	-1	22	-1	19	-1	4	18	-1	-1	-1	-1	-1	-1	-1	-1	-1	-1	29	34	-1	-1	-1	30	-1
49 
26 44 39 46
41 35 28 45
25 32 7 3
15 39 21 7
24 30 27 28
43 46 47 28
13 16 17 18
47 39 4 17
29 37 31 28
32 22 8 8
15 32 34 39
26 14 10 12
3 37 15 45
28 5 15 35
31 25 35 44
29 30 18 2
33 26 7 21
1 43 24 16
3 35 8 32
15 48 9 2
47 42 43 15
43 19 33 15
46 14 38 46
28 3 12 48
44 10 38 18
39 11 9 43
31 46 24 10
39 36 13 38
2 39 41 4
44 29 12 5
30 33 9 32
16 25 2 19
20 30 6 10
16 16 31 38
8 44 14 7
14 35 25 19
27 29 12 45
2 49 7 1
19 12 11 43
15 2 31 49
4 24 12 25
27 14 17 49
22 29 25 6
23 24 10 13
24 41 44 36
49 47 21 44
7 15 9 34
15 41 32 7
31 20 9 18
